NAME: tsp25_28
COMMENT: 25-tsp problem (Padberg/Rinaldi)
TYPE: TSP
DIMENSION: 25
EDGE_WEIGHT_TYPE : EUC_2D
NODE_COORD_SECTION
1 27 35
2 15 22
3 22 5
4 5 33
5 40 29
6 34 21
7 15 35
8 28 17
9 29 17
10 11 23
11 39 22
12 28 11
13 11 6
14 26 11
15 29 29
16 20 28
17 28 33
18 25 0
19 31 2
20 21 21
21 7 17
22 36 9
23 11 39
24 32 37
25 29 40
